n=150;
k_min=3;
k_max=3;
M=[| 0.07999999999999996, 1.0, 0.0
 | 0.07999999999999996, 0.92, 0.0
 | 0.07999999999999996, 1.0, 0.0
 | 0.07999999999999996, 1.0, 0.0
 | 0.07999999999999996, 1.0, 0.0
 | 0.07999999999999996, 1.0, 0.0
 | 0.07999999999999996, 0.98, 0.0
 | 0.07999999999999996, 0.96, 0.0
 | 0.07999999999999996, 0.98, 0.0
 | 0.07999999999999996, 0.92, 0.0
 | 0.07999999999999996, 0.84, 0.0
 | 0.07999999999999996, 1.0, 0.0
 | 0.07999999999999996, 1.0, 0.0
 | 0.07999999999999996, 0.98, 0.0
 | 0.07999999999999996, 1.0, 0.0
 | 0.07999999999999996, 1.0, 0.0
 | 0.07999999999999996, 1.0, 0.0
 | 0.07999999999999996, 1.0, 0.0
 | 0.07999999999999996, 1.0, 0.0
 | 0.07999999999999996, 0.82, 0.0
 | 0.07999999999999996, 0.88, 0.0
 | 0.07999999999999996, 0.86, 0.0
 | 0.07999999999999996, 0.96, 0.0
 | 0.07999999999999996, 0.94, 0.0
 | 0.07999999999999996, 0.98, 0.0
 | 0.07999999999999996, 0.92, 0.0
 | 0.07999999999999996, 0.94, 0.0
 | 0.07999999999999996, 0.96, 0.0
 | 0.07999999999999996, 1.0, 0.0
 | 0.07999999999999996, 0.92, 0.0
 | 0.07999999999999996, 0.92, 0.0
 | 0.07999999999999996, 0.88, 0.0
 | 0.07999999999999996, 1.0, 0.0
 | 0.07999999999999996, 1.0, 0.0
 | 0.07999999999999996, 0.92, 0.0
 | 0.07999999999999996, 0.86, 0.0
 | 0.07999999999999996, 0.8, 0.0
 | 0.07999999999999996, 0.92, 0.0
 | 0.07999999999999996, 0.98, 0.0
 | 0.07999999999999996, 0.98, 0.0
 | 0.07999999999999996, 0.96, 0.0
 | 0.07999999999999996, 0.98, 0.0
 | 0.07999999999999996, 0.98, 0.0
 | 0.07999999999999996, 0.94, 0.0
 | 0.07999999999999996, 0.8, 0.0
 | 0.07999999999999996, 1.0, 0.0
 | 0.07999999999999996, 0.82, 0.0
 | 0.07999999999999996, 1.0, 0.0
 | 0.07999999999999996, 0.78, 0.0
 | 0.07999999999999996, 0.98, 0.0
 | 1.0, 0.0, 0.07999999999999996
 | 0.96, 0.0, 0.07999999999999996
 | 1.0, 0.0, 0.21999999999999997
 | 0.98, 0.0, 0.07999999999999996
 | 1.0, 0.0, 0.07999999999999996
 | 1.0, 0.0, 0.07999999999999996
 | 0.96, 0.0, 0.07999999999999996
 | 1.0, 0.07999999999999996, 0.0
 | 1.0, 0.0, 0.07999999999999996
 | 0.96, 0.0, 0.07999999999999996
 | 0.92, 0.0, 0.07999999999999996
 | 1.0, 0.0, 0.07999999999999996
 | 0.9, 0.0, 0.07999999999999996
 | 1.0, 0.0, 0.07999999999999996
 | 1.0, 0.0, 0.07999999999999996
 | 1.0, 0.0, 0.07999999999999996
 | 0.9, 0.0, 0.07999999999999996
 | 1.0, 0.0, 0.07999999999999996
 | 1.0, 0.0, 0.07999999999999996
 | 0.98, 0.0, 0.07999999999999996
 | 0.92, 0.0, 0.07999999999999996
 | 0.96, 0.0, 0.07999999999999996
 | 0.9, 0.0, 0.07999999999999996
 | 0.98, 0.0, 0.07999999999999996
 | 0.94, 0.0, 0.07999999999999996
 | 1.0, 0.0, 0.07999999999999996
 | 1.0, 0.0, 0.07999999999999996
 | 0.94, 0.0, 0.21999999999999997
 | 0.92, 0.0, 0.07999999999999996
 | 0.92, 0.0, 0.07999999999999996
 | 0.94, 0.0, 0.07999999999999996
 | 0.92, 0.0, 0.07999999999999996
 | 1, 0.0, 0.07999999999999996
 | 0.9, 0.0, 0.07999999999999996
 | 0.96, 0.0, 0.07999999999999996
 | 0.94, 0.0, 0.07999999999999996
 | 1.0, 0.0, 0.07999999999999996
 | 1, 0.0, 0.07999999999999996
 | 1.0, 0.0, 0.07999999999999996
 | 0.96, 0.0, 0.07999999999999996
 | 1, 0.0, 0.07999999999999996
 | 0.96, 0.0, 0.07999999999999996
 | 1, 0.0, 0.07999999999999996
 | 1.0, 0.07999999999999996, 0.0
 | 1.0, 0.0, 0.07999999999999996
 | 1.0, 0.0, 0.07999999999999996
 | 1.0, 0.0, 0.07999999999999996
 | 0.88, 0.0, 0.07999999999999996
 | 1.0, 0.07999999999999996, 0.0
 | 1.0, 0.0, 0.07999999999999996
 | 0.98, 0.0, 0.3400000000000001
 | 1.0, 0.0, 0.07999999999999996
 | 0.41999999999999993, 0.0, 0.88
 | 0.9, 0.0, 0.32000000000000006
 | 1.0, 0.0, 0.3400000000000001
 | 0.3400000000000001, 0.0, 1.0
 | 0.86, 0.0, 0.07999999999999996
 | 0.3400000000000001, 0.0, 0.96
 | 0.9, 0.0, 0.3400000000000001
 | 0.3400000000000001, 0.0, 1.0
 | 0.8, 0.0, 0.21999999999999997
 | 1.0, 0.0, 0.21999999999999997
 | 0.94, 0.0, 0.3400000000000001
 | 1.0, 0.0, 0.07999999999999996
 | 0.84, 0.0, 0.07999999999999996
 | 0.96, 0.0, 0.32000000000000006
 | 0.9, 0.0, 0.32000000000000006
 | 0.3400000000000001, 0.0, 1.0
 | 0.3400000000000001, 0.0, 1.0
 | 0.9, 0.0, 0.07999999999999996
 | 1.0, 0.0, 0.3400000000000001
 | 1.0, 0.0, 0.07999999999999996
 | 0.3400000000000001, 0.0, 1.0
 | 0.9, 0.0, 0.07999999999999996
 | 1.0, 0.0, 0.3400000000000001
 | 0.3400000000000001, 0.0, 0.96
 | 0.92, 0.0, 0.07999999999999996
 | 0.98, 0.0, 0.07999999999999996
 | 0.9, 0.0, 0.32000000000000006
 | 0.4, 0.0, 0.88
 | 0.3400000000000001, 0.0, 0.96
 | 0.3400000000000001, 0.0, 1.0
 | 0.9, 0.0, 0.32000000000000006
 | 0.9, 0.0, 0.07999999999999996
 | 0.76, 0.0, 0.21999999999999997
 | 0.3400000000000001, 0.0, 1.0
 | 0.98, 0.0, 0.3400000000000001
 | 0.9, 0.0, 0.32000000000000006
 | 0.96, 0.0, 0.07999999999999996
 | 0.94, 0.0, 0.3400000000000001
 | 1.0, 0.0, 0.3400000000000001
 | 0.92, 0.0, 0.32000000000000006
 | 1.0, 0.0, 0.07999999999999996
 | 1.0, 0.0, 0.3400000000000001
 | 0.98, 0.0, 0.3400000000000001
 | 0.92, 0.0, 0.32000000000000006
 | 0.9, 0.0, 0.07999999999999996
 | 0.8, 0.0, 0.21999999999999997
 | 0.96, 0.0, 0.32000000000000006
 | 1.0, 0.0, 0.07999999999999996 |];
 P=[2, 2, 2, 2, 2, 2, 2, 2, 2, 2, 2, 2, 2, 2, 2, 2, 2, 2, 2, 2, 2, 2, 2, 2, 2, 2, 2, 2, 2, 2, 2, 2, 2, 2, 2, 2, 2, 2, 2, 2, 2, 2, 2, 2, 2, 2, 2, 2, 2, 2, 1, 1, 1, 1, 1, 1, 1, 1, 1, 1, 1, 1, 1, 1, 1, 1, 1, 1, 1, 1, 1, 1, 1, 1, 1, 1, 1, 1, 1, 1, 1, 1, 1, 1, 1, 1, 1, 1, 1, 1, 1, 1, 1, 1, 1, 1, 1, 1, 1, 1, 1, 1, 3, 1, 1, 3, 1, 3, 1, 3, 1, 1, 1, 1, 1, 1, 1, 3, 3, 1, 1, 1, 3, 1, 1, 3, 1, 1, 1, 3, 3, 3, 1, 1, 1, 3, 1, 1, 1, 1, 1, 1, 1, 1, 1, 1, 1, 1, 1, 1 ];